c nIsolatedPIs 3
c maxPI 132
p cnf 728 1789
c gate 133 12 -127 0
12 -133 0
-127 -133 0
-12 127 133 0
c gate 134 10 127 0
10 -134 0
127 -134 0
-10 -127 134 0
c gate 135 -126 -134 0
-126 -135 0
-134 -135 0
126 134 135 0
c gate 136 -133 135 0
-133 -136 0
135 -136 0
133 -135 136 0
c gate 137 11 -127 0
11 -137 0
-127 -137 0
-11 127 137 0
c gate 138 9 127 0
9 -138 0
127 -138 0
-9 -127 138 0
c gate 139 126 -138 0
126 -139 0
-138 -139 0
-126 138 139 0
c gate 140 -137 139 0
-137 -140 0
139 -140 0
137 -139 140 0
c gate 141 -136 -140 0
-136 -141 0
-140 -141 0
136 140 141 0
c gate 142 129 -141 0
129 -142 0
-141 -142 0
-129 141 142 0
c gate 143 19 -127 0
19 -143 0
-127 -143 0
-19 127 143 0
c gate 144 17 127 0
17 -144 0
127 -144 0
-17 -127 144 0
c gate 145 126 -144 0
126 -145 0
-144 -145 0
-126 144 145 0
c gate 146 -143 145 0
-143 -146 0
145 -146 0
143 -145 146 0
c gate 147 20 -127 0
20 -147 0
-127 -147 0
-20 127 147 0
c gate 148 18 127 0
18 -148 0
127 -148 0
-18 -127 148 0
c gate 149 -126 -148 0
-126 -149 0
-148 -149 0
126 148 149 0
c gate 150 -147 149 0
-147 -150 0
149 -150 0
147 -149 150 0
c gate 151 -146 -150 0
-146 -151 0
-150 -151 0
146 150 151 0
c gate 152 -129 -151 0
-129 -152 0
-151 -152 0
129 151 152 0
c gate 153 128 -152 0
128 -153 0
-152 -153 0
-128 152 153 0
c gate 154 -142 153 0
-142 -154 0
153 -154 0
142 -153 154 0
c gate 155 16 -127 0
16 -155 0
-127 -155 0
-16 127 155 0
c gate 156 14 127 0
14 -156 0
127 -156 0
-14 -127 156 0
c gate 157 -126 -156 0
-126 -157 0
-156 -157 0
126 156 157 0
c gate 158 -155 157 0
-155 -158 0
157 -158 0
155 -157 158 0
c gate 159 15 -127 0
15 -159 0
-127 -159 0
-15 127 159 0
c gate 160 13 127 0
13 -160 0
127 -160 0
-13 -127 160 0
c gate 161 126 -160 0
126 -161 0
-160 -161 0
-126 160 161 0
c gate 162 -159 161 0
-159 -162 0
161 -162 0
159 -161 162 0
c gate 163 -158 -162 0
-158 -163 0
-162 -163 0
158 162 163 0
c gate 164 129 -163 0
129 -164 0
-163 -164 0
-129 163 164 0
c gate 165 23 -127 0
23 -165 0
-127 -165 0
-23 127 165 0
c gate 166 21 127 0
21 -166 0
127 -166 0
-21 -127 166 0
c gate 167 126 -166 0
126 -167 0
-166 -167 0
-126 166 167 0
c gate 168 -165 167 0
-165 -168 0
167 -168 0
165 -167 168 0
c gate 169 24 -127 0
24 -169 0
-127 -169 0
-24 127 169 0
c gate 170 22 127 0
22 -170 0
127 -170 0
-22 -127 170 0
c gate 171 -126 -170 0
-126 -171 0
-170 -171 0
126 170 171 0
c gate 172 -169 171 0
-169 -172 0
171 -172 0
169 -171 172 0
c gate 173 -168 -172 0
-168 -173 0
-172 -173 0
168 172 173 0
c gate 174 -129 -173 0
-129 -174 0
-173 -174 0
129 173 174 0
c gate 175 -128 -174 0
-128 -175 0
-174 -175 0
128 174 175 0
c gate 176 -164 175 0
-164 -176 0
175 -176 0
164 -175 176 0
c gate 177 -154 -176 0
-154 -177 0
-176 -177 0
154 176 177 0
c gate 178 131 177 0
131 -178 0
177 -178 0
-131 -177 178 0
c gate 179 -41 127 0
-41 -179 0
127 -179 0
41 -127 179 0
c gate 180 -43 -127 0
-43 -180 0
-127 -180 0
43 127 180 0
c gate 181 126 -180 0
126 -181 0
-180 -181 0
-126 180 181 0
c gate 182 -179 181 0
-179 -182 0
181 -182 0
179 -181 182 0
c gate 183 -42 127 0
-42 -183 0
127 -183 0
42 -127 183 0
c gate 184 -44 -127 0
-44 -184 0
-127 -184 0
44 127 184 0
c gate 185 -126 -184 0
-126 -185 0
-184 -185 0
126 184 185 0
c gate 186 -183 185 0
-183 -186 0
185 -186 0
183 -185 186 0
c gate 187 -182 -186 0
-182 -187 0
-186 -187 0
182 186 187 0
c gate 188 129 187 0
129 -188 0
187 -188 0
-129 -187 188 0
c gate 189 -50 127 0
-50 -189 0
127 -189 0
50 -127 189 0
c gate 190 -52 -127 0
-52 -190 0
-127 -190 0
52 127 190 0
c gate 191 -126 -190 0
-126 -191 0
-190 -191 0
126 190 191 0
c gate 192 -189 191 0
-189 -192 0
191 -192 0
189 -191 192 0
c gate 193 -49 127 0
-49 -193 0
127 -193 0
49 -127 193 0
c gate 194 -51 -127 0
-51 -194 0
-127 -194 0
51 127 194 0
c gate 195 126 -194 0
126 -195 0
-194 -195 0
-126 194 195 0
c gate 196 -193 195 0
-193 -196 0
195 -196 0
193 -195 196 0
c gate 197 -129 -196 0
-129 -197 0
-196 -197 0
129 196 197 0
c gate 198 -192 197 0
-192 -198 0
197 -198 0
192 -197 198 0
c gate 199 128 -198 0
128 -199 0
-198 -199 0
-128 198 199 0
c gate 200 -188 199 0
-188 -200 0
199 -200 0
188 -199 200 0
c gate 201 -45 127 0
-45 -201 0
127 -201 0
45 -127 201 0
c gate 202 -47 -127 0
-47 -202 0
-127 -202 0
47 127 202 0
c gate 203 126 -202 0
126 -203 0
-202 -203 0
-126 202 203 0
c gate 204 -201 203 0
-201 -204 0
203 -204 0
201 -203 204 0
c gate 205 -46 127 0
-46 -205 0
127 -205 0
46 -127 205 0
c gate 206 -48 -127 0
-48 -206 0
-127 -206 0
48 127 206 0
c gate 207 -126 -206 0
-126 -207 0
-206 -207 0
126 206 207 0
c gate 208 -205 207 0
-205 -208 0
207 -208 0
205 -207 208 0
c gate 209 -204 -208 0
-204 -209 0
-208 -209 0
204 208 209 0
c gate 210 129 209 0
129 -210 0
209 -210 0
-129 -209 210 0
c gate 211 -54 127 0
-54 -211 0
127 -211 0
54 -127 211 0
c gate 212 -56 -127 0
-56 -212 0
-127 -212 0
56 127 212 0
c gate 213 -126 -212 0
-126 -213 0
-212 -213 0
126 212 213 0
c gate 214 -211 213 0
-211 -214 0
213 -214 0
211 -213 214 0
c gate 215 -53 127 0
-53 -215 0
127 -215 0
53 -127 215 0
c gate 216 -55 -127 0
-55 -216 0
-127 -216 0
55 127 216 0
c gate 217 126 -216 0
126 -217 0
-216 -217 0
-126 216 217 0
c gate 218 -215 217 0
-215 -218 0
217 -218 0
215 -217 218 0
c gate 219 -129 -218 0
-129 -219 0
-218 -219 0
129 218 219 0
c gate 220 -214 219 0
-214 -220 0
219 -220 0
214 -219 220 0
c gate 221 -128 -220 0
-128 -221 0
-220 -221 0
128 220 221 0
c gate 222 -210 221 0
-210 -222 0
221 -222 0
210 -221 222 0
c gate 223 -131 -222 0
-131 -223 0
-222 -223 0
131 222 223 0
c gate 224 -200 223 0
-200 -224 0
223 -224 0
200 -223 224 0
c gate 225 130 -224 0
130 -225 0
-224 -225 0
-130 224 225 0
c gate 226 -178 225 0
-178 -226 0
225 -226 0
178 -225 226 0
c gate 227 132 226 0
132 -227 0
226 -227 0
-132 -226 227 0
c gate 228 -56 127 0
-56 -228 0
127 -228 0
56 -127 228 0
c gate 229 -58 -127 0
-58 -229 0
-127 -229 0
58 127 229 0
c gate 230 -126 -229 0
-126 -230 0
-229 -230 0
126 229 230 0
c gate 231 -228 230 0
-228 -231 0
230 -231 0
228 -230 231 0
c gate 232 -55 127 0
-55 -232 0
127 -232 0
55 -127 232 0
c gate 233 -57 -127 0
-57 -233 0
-127 -233 0
57 127 233 0
c gate 234 126 -233 0
126 -234 0
-233 -234 0
-126 233 234 0
c gate 235 -232 234 0
-232 -235 0
234 -235 0
232 -234 235 0
c gate 236 -231 -235 0
-231 -236 0
-235 -236 0
231 235 236 0
c gate 237 129 -236 0
129 -237 0
-236 -237 0
-129 236 237 0
c gate 238 -63 127 0
-63 -238 0
127 -238 0
63 -127 238 0
c gate 239 -65 -127 0
-65 -239 0
-127 -239 0
65 127 239 0
c gate 240 -238 -239 0
-238 -240 0
-239 -240 0
238 239 240 0
c gate 241 126 -240 0
126 -241 0
-240 -241 0
-126 240 241 0
c gate 242 -64 127 0
-64 -242 0
127 -242 0
64 -127 242 0
c gate 243 -66 -127 0
-66 -243 0
-127 -243 0
66 127 243 0
c gate 244 -242 -243 0
-242 -244 0
-243 -244 0
242 243 244 0
c gate 245 -126 -244 0
-126 -245 0
-244 -245 0
126 244 245 0
c gate 246 -129 -245 0
-129 -246 0
-245 -246 0
129 245 246 0
c gate 247 -241 246 0
-241 -247 0
246 -247 0
241 -246 247 0
c gate 248 -237 -247 0
-237 -248 0
-247 -248 0
237 247 248 0
c gate 249 -128 -248 0
-128 -249 0
-248 -249 0
128 248 249 0
c gate 250 54 -127 0
54 -250 0
-127 -250 0
-54 127 250 0
c gate 251 52 127 0
52 -251 0
127 -251 0
-52 -127 251 0
c gate 252 -126 -251 0
-126 -252 0
-251 -252 0
126 251 252 0
c gate 253 -250 252 0
-250 -253 0
252 -253 0
250 -252 253 0
c gate 254 51 127 0
51 -254 0
127 -254 0
-51 -127 254 0
c gate 255 53 -127 0
53 -255 0
-127 -255 0
-53 127 255 0
c gate 256 126 -255 0
126 -256 0
-255 -256 0
-126 255 256 0
c gate 257 -254 256 0
-254 -257 0
256 -257 0
254 -256 257 0
c gate 258 -253 -257 0
-253 -258 0
-257 -258 0
253 257 258 0
c gate 259 129 -258 0
129 -259 0
-258 -259 0
-129 258 259 0
c gate 260 61 -127 0
61 -260 0
-127 -260 0
-61 127 260 0
c gate 261 59 127 0
59 -261 0
127 -261 0
-59 -127 261 0
c gate 262 126 -261 0
126 -262 0
-261 -262 0
-126 261 262 0
c gate 263 -260 262 0
-260 -263 0
262 -263 0
260 -262 263 0
c gate 264 60 127 0
60 -264 0
127 -264 0
-60 -127 264 0
c gate 265 62 -127 0
62 -265 0
-127 -265 0
-62 127 265 0
c gate 266 -126 -265 0
-126 -266 0
-265 -266 0
126 265 266 0
c gate 267 -264 266 0
-264 -267 0
266 -267 0
264 -266 267 0
c gate 268 -263 -267 0
-263 -268 0
-267 -268 0
263 267 268 0
c gate 269 -129 -268 0
-129 -269 0
-268 -269 0
129 268 269 0
c gate 270 128 -269 0
128 -270 0
-269 -270 0
-128 269 270 0
c gate 271 -259 270 0
-259 -271 0
270 -271 0
259 -270 271 0
c gate 272 -249 -271 0
-249 -272 0
-271 -272 0
249 271 272 0
c gate 273 -131 -272 0
-131 -273 0
-272 -273 0
131 272 273 0
c gate 274 27 127 0
27 -274 0
127 -274 0
-27 -127 274 0
c gate 275 29 -127 0
29 -275 0
-127 -275 0
-29 127 275 0
c gate 276 126 -275 0
126 -276 0
-275 -276 0
-126 275 276 0
c gate 277 -274 276 0
-274 -277 0
276 -277 0
274 -276 277 0
c gate 278 28 127 0
28 -278 0
127 -278 0
-28 -127 278 0
c gate 279 30 -127 0
30 -279 0
-127 -279 0
-30 127 279 0
c gate 280 -126 -279 0
-126 -280 0
-279 -280 0
126 279 280 0
c gate 281 -278 280 0
-278 -281 0
280 -281 0
278 -280 281 0
c gate 282 -277 -281 0
-277 -282 0
-281 -282 0
277 281 282 0
c gate 283 -129 -282 0
-129 -283 0
-282 -283 0
129 282 283 0
c gate 284 19 127 0
19 -284 0
127 -284 0
-19 -127 284 0
c gate 285 21 -127 0
21 -285 0
-127 -285 0
-21 127 285 0
c gate 286 126 -285 0
126 -286 0
-285 -286 0
-126 285 286 0
c gate 287 -284 286 0
-284 -287 0
286 -287 0
284 -286 287 0
c gate 288 20 127 0
20 -288 0
127 -288 0
-20 -127 288 0
c gate 289 22 -127 0
22 -289 0
-127 -289 0
-22 127 289 0
c gate 290 -126 -289 0
-126 -290 0
-289 -290 0
126 289 290 0
c gate 291 -288 290 0
-288 -291 0
290 -291 0
288 -290 291 0
c gate 292 -287 -291 0
-287 -292 0
-291 -292 0
287 291 292 0
c gate 293 129 -292 0
129 -293 0
-292 -293 0
-129 292 293 0
c gate 294 -283 -293 0
-283 -294 0
-293 -294 0
283 293 294 0
c gate 295 128 -294 0
128 -295 0
-294 -295 0
-128 294 295 0
c gate 296 24 127 0
24 -296 0
127 -296 0
-24 -127 296 0
c gate 297 26 -127 0
26 -297 0
-127 -297 0
-26 127 297 0
c gate 298 -126 -297 0
-126 -298 0
-297 -298 0
126 297 298 0
c gate 299 -296 298 0
-296 -299 0
298 -299 0
296 -298 299 0
c gate 300 23 127 0
23 -300 0
127 -300 0
-23 -127 300 0
c gate 301 25 -127 0
25 -301 0
-127 -301 0
-25 127 301 0
c gate 302 126 -301 0
126 -302 0
-301 -302 0
-126 301 302 0
c gate 303 -300 302 0
-300 -303 0
302 -303 0
300 -302 303 0
c gate 304 -299 -303 0
-299 -304 0
-303 -304 0
299 303 304 0
c gate 305 129 -304 0
129 -305 0
-304 -305 0
-129 304 305 0
c gate 306 32 127 0
32 -306 0
127 -306 0
-32 -127 306 0
c gate 307 34 -127 0
34 -307 0
-127 -307 0
-34 127 307 0
c gate 308 -126 -307 0
-126 -308 0
-307 -308 0
126 307 308 0
c gate 309 -306 308 0
-306 -309 0
308 -309 0
306 -308 309 0
c gate 310 31 127 0
31 -310 0
127 -310 0
-31 -127 310 0
c gate 311 33 -127 0
33 -311 0
-127 -311 0
-33 127 311 0
c gate 312 126 -311 0
126 -312 0
-311 -312 0
-126 311 312 0
c gate 313 -310 312 0
-310 -313 0
312 -313 0
310 -312 313 0
c gate 314 -309 -313 0
-309 -314 0
-313 -314 0
309 313 314 0
c gate 315 -129 -314 0
-129 -315 0
-314 -315 0
129 314 315 0
c gate 316 -305 -315 0
-305 -316 0
-315 -316 0
305 315 316 0
c gate 317 -128 -316 0
-128 -317 0
-316 -317 0
128 316 317 0
c gate 318 131 -317 0
131 -318 0
-317 -318 0
-131 317 318 0
c gate 319 -295 318 0
-295 -319 0
318 -319 0
295 -318 319 0
c gate 320 -273 -319 0
-273 -320 0
-319 -320 0
273 319 320 0
c gate 321 130 -320 0
130 -321 0
-320 -321 0
-130 320 321 0
c gate 322 132 321 0
132 -322 0
321 -322 0
-132 -321 322 0
c gate 323 -227 -322 0
-227 -323 0
-322 -323 0
227 322 323 0
c gate 324 129 282 0
129 -324 0
282 -324 0
-129 -282 324 0
c gate 325 -35 127 0
-35 -325 0
127 -325 0
35 -127 325 0
c gate 326 -37 -127 0
-37 -326 0
-127 -326 0
37 127 326 0
c gate 327 126 -326 0
126 -327 0
-326 -327 0
-126 326 327 0
c gate 328 -325 327 0
-325 -328 0
327 -328 0
325 -327 328 0
c gate 329 -36 127 0
-36 -329 0
127 -329 0
36 -127 329 0
c gate 330 -38 -127 0
-38 -330 0
-127 -330 0
38 127 330 0
c gate 331 -126 -330 0
-126 -331 0
-330 -331 0
126 330 331 0
c gate 332 -329 331 0
-329 -332 0
331 -332 0
329 -331 332 0
c gate 333 -328 -332 0
-328 -333 0
-332 -333 0
328 332 333 0
c gate 334 -129 -333 0
-129 -334 0
-333 -334 0
129 333 334 0
c gate 335 -128 -334 0
-128 -335 0
-334 -335 0
128 334 335 0
c gate 336 -324 335 0
-324 -336 0
335 -336 0
324 -335 336 0
c gate 337 128 -316 0
128 -337 0
-316 -337 0
-128 316 337 0
c gate 338 -131 -337 0
-131 -338 0
-337 -338 0
131 337 338 0
c gate 339 -336 338 0
-336 -339 0
338 -339 0
336 -338 339 0
c gate 340 -3 -127 0
-3 -340 0
-127 -340 0
3 127 340 0
c gate 341 -1 127 0
-1 -341 0
127 -341 0
1 -127 341 0
c gate 342 -340 -341 0
-340 -342 0
-341 -342 0
340 341 342 0
c gate 343 126 342 0
126 -343 0
342 -343 0
-126 -342 343 0
c gate 344 -4 -127 0
-4 -344 0
-127 -344 0
4 127 344 0
c gate 345 -2 127 0
-2 -345 0
127 -345 0
2 -127 345 0
c gate 346 -126 -345 0
-126 -346 0
-345 -346 0
126 345 346 0
c gate 347 -344 346 0
-344 -347 0
346 -347 0
344 -346 347 0
c gate 348 -129 -347 0
-129 -348 0
-347 -348 0
129 347 348 0
c gate 349 -343 348 0
-343 -349 0
348 -349 0
343 -348 349 0
c gate 350 -120 -127 0
-120 -350 0
-127 -350 0
120 127 350 0
c gate 351 -118 127 0
-118 -351 0
127 -351 0
118 -127 351 0
c gate 352 -350 -351 0
-350 -352 0
-351 -352 0
350 351 352 0
c gate 353 126 352 0
126 -353 0
352 -353 0
-126 -352 353 0
c gate 354 -121 -127 0
-121 -354 0
-127 -354 0
121 127 354 0
c gate 355 -119 127 0
-119 -355 0
127 -355 0
119 -127 355 0
c gate 356 -126 -355 0
-126 -356 0
-355 -356 0
126 355 356 0
c gate 357 -354 356 0
-354 -357 0
356 -357 0
354 -356 357 0
c gate 358 129 -357 0
129 -358 0
-357 -358 0
-129 357 358 0
c gate 359 -353 358 0
-353 -359 0
358 -359 0
353 -358 359 0
c gate 360 -349 -359 0
-349 -360 0
-359 -360 0
349 359 360 0
c gate 361 128 -360 0
128 -361 0
-360 -361 0
-128 360 361 0
c gate 362 6 127 0
6 -362 0
127 -362 0
-6 -127 362 0
c gate 363 8 -127 0
8 -363 0
-127 -363 0
-8 127 363 0
c gate 364 -126 -363 0
-126 -364 0
-363 -364 0
126 363 364 0
c gate 365 -362 364 0
-362 -365 0
364 -365 0
362 -364 365 0
c gate 366 5 127 0
5 -366 0
127 -366 0
-5 -127 366 0
c gate 367 7 -127 0
7 -367 0
-127 -367 0
-7 127 367 0
c gate 368 126 -367 0
126 -368 0
-367 -368 0
-126 367 368 0
c gate 369 -366 368 0
-366 -369 0
368 -369 0
366 -368 369 0
c gate 370 -365 -369 0
-365 -370 0
-369 -370 0
365 369 370 0
c gate 371 -129 -370 0
-129 -371 0
-370 -371 0
129 370 371 0
c gate 372 125 -127 0
125 -372 0
-127 -372 0
-125 127 372 0
c gate 373 123 127 0
123 -373 0
127 -373 0
-123 -127 373 0
c gate 374 -372 -373 0
-372 -374 0
-373 -374 0
372 373 374 0
c gate 375 -126 -374 0
-126 -375 0
-374 -375 0
126 374 375 0
c gate 376 -124 -127 0
-124 -376 0
-127 -376 0
124 127 376 0
c gate 377 -122 127 0
-122 -377 0
127 -377 0
122 -127 377 0
c gate 378 -376 -377 0
-376 -378 0
-377 -378 0
376 377 378 0
c gate 379 126 378 0
126 -379 0
378 -379 0
-126 -378 379 0
c gate 380 129 -379 0
129 -380 0
-379 -380 0
-129 379 380 0
c gate 381 -375 380 0
-375 -381 0
380 -381 0
375 -380 381 0
c gate 382 -371 -381 0
-371 -382 0
-381 -382 0
371 381 382 0
c gate 383 -128 -382 0
-128 -383 0
-382 -383 0
128 382 383 0
c gate 384 -361 -383 0
-361 -384 0
-383 -384 0
361 383 384 0
c gate 385 131 384 0
131 -385 0
384 -385 0
-131 -384 385 0
c gate 386 130 -385 0
130 -386 0
-385 -386 0
-130 385 386 0
c gate 387 -339 386 0
-339 -387 0
386 -387 0
339 -386 387 0
c gate 388 132 387 0
132 -388 0
387 -388 0
-132 -387 388 0
c gate 389 -38 127 0
-38 -389 0
127 -389 0
38 -127 389 0
c gate 390 -40 -127 0
-40 -390 0
-127 -390 0
40 127 390 0
c gate 391 -126 -390 0
-126 -391 0
-390 -391 0
126 390 391 0
c gate 392 -389 391 0
-389 -392 0
391 -392 0
389 -391 392 0
c gate 393 -37 127 0
-37 -393 0
127 -393 0
37 -127 393 0
c gate 394 -39 -127 0
-39 -394 0
-127 -394 0
39 127 394 0
c gate 395 126 -394 0
126 -395 0
-394 -395 0
-126 394 395 0
c gate 396 -393 395 0
-393 -396 0
395 -396 0
393 -395 396 0
c gate 397 129 -396 0
129 -397 0
-396 -397 0
-129 396 397 0
c gate 398 -392 397 0
-392 -398 0
397 -398 0
392 -397 398 0
c gate 399 -129 209 0
-129 -399 0
209 -399 0
129 -209 399 0
c gate 400 -128 -399 0
-128 -400 0
-399 -400 0
128 399 400 0
c gate 401 -398 400 0
-398 -401 0
400 -401 0
398 -400 401 0
c gate 402 -34 127 0
-34 -402 0
127 -402 0
34 -127 402 0
c gate 403 -36 -127 0
-36 -403 0
-127 -403 0
36 127 403 0
c gate 404 -126 -403 0
-126 -404 0
-403 -404 0
126 403 404 0
c gate 405 -402 404 0
-402 -405 0
404 -405 0
402 -404 405 0
c gate 406 -33 127 0
-33 -406 0
127 -406 0
33 -127 406 0
c gate 407 -35 -127 0
-35 -407 0
-127 -407 0
35 127 407 0
c gate 408 126 -407 0
126 -408 0
-407 -408 0
-126 407 408 0
c gate 409 -406 408 0
-406 -409 0
408 -409 0
406 -408 409 0
c gate 410 129 -409 0
129 -410 0
-409 -410 0
-129 409 410 0
c gate 411 -405 410 0
-405 -411 0
410 -411 0
405 -410 411 0
c gate 412 -129 187 0
-129 -412 0
187 -412 0
129 -187 412 0
c gate 413 128 -412 0
128 -413 0
-412 -413 0
-128 412 413 0
c gate 414 -411 413 0
-411 -414 0
413 -414 0
411 -413 414 0
c gate 415 -401 -414 0
-401 -415 0
-414 -415 0
401 414 415 0
c gate 416 131 -415 0
131 -416 0
-415 -416 0
-131 415 416 0
c gate 417 -67 -127 0
-67 -417 0
-127 -417 0
67 127 417 0
c gate 418 -65 127 0
-65 -418 0
127 -418 0
65 -127 418 0
c gate 419 -417 -418 0
-417 -419 0
-418 -419 0
417 418 419 0
c gate 420 126 419 0
126 -420 0
419 -420 0
-126 -419 420 0
c gate 421 -66 127 0
-66 -421 0
127 -421 0
66 -127 421 0
c gate 422 -68 -127 0
-68 -422 0
-127 -422 0
68 127 422 0
c gate 423 -126 -422 0
-126 -423 0
-422 -423 0
126 422 423 0
c gate 424 -421 423 0
-421 -424 0
423 -424 0
421 -423 424 0
c gate 425 129 -424 0
129 -425 0
-424 -425 0
-129 424 425 0
c gate 426 -420 425 0
-420 -426 0
425 -426 0
420 -425 426 0
c gate 427 -75 -127 0
-75 -427 0
-127 -427 0
75 127 427 0
c gate 428 -73 127 0
-73 -428 0
127 -428 0
73 -127 428 0
c gate 429 -427 -428 0
-427 -429 0
-428 -429 0
427 428 429 0
c gate 430 126 429 0
126 -430 0
429 -430 0
-126 -429 430 0
c gate 431 -74 127 0
-74 -431 0
127 -431 0
74 -127 431 0
c gate 432 -76 -127 0
-76 -432 0
-127 -432 0
76 127 432 0
c gate 433 -126 -432 0
-126 -433 0
-432 -433 0
126 432 433 0
c gate 434 -431 433 0
-431 -434 0
433 -434 0
431 -433 434 0
c gate 435 -129 -434 0
-129 -435 0
-434 -435 0
129 434 435 0
c gate 436 -430 435 0
-430 -436 0
435 -436 0
430 -435 436 0
c gate 437 -426 -436 0
-426 -437 0
-436 -437 0
426 436 437 0
c gate 438 128 -437 0
128 -438 0
-437 -438 0
-128 437 438 0
c gate 439 -79 -127 0
-79 -439 0
-127 -439 0
79 127 439 0
c gate 440 -77 127 0
-77 -440 0
127 -440 0
77 -127 440 0
c gate 441 -439 -440 0
-439 -441 0
-440 -441 0
439 440 441 0
c gate 442 126 441 0
126 -442 0
441 -442 0
-126 -441 442 0
c gate 443 -78 127 0
-78 -443 0
127 -443 0
78 -127 443 0
c gate 444 -80 -127 0
-80 -444 0
-127 -444 0
80 127 444 0
c gate 445 -126 -444 0
-126 -445 0
-444 -445 0
126 444 445 0
c gate 446 -443 445 0
-443 -446 0
445 -446 0
443 -445 446 0
c gate 447 -129 -446 0
-129 -447 0
-446 -447 0
129 446 447 0
c gate 448 -442 447 0
-442 -448 0
447 -448 0
442 -447 448 0
c gate 449 -71 -127 0
-71 -449 0
-127 -449 0
71 127 449 0
c gate 450 -69 127 0
-69 -450 0
127 -450 0
69 -127 450 0
c gate 451 -449 -450 0
-449 -451 0
-450 -451 0
449 450 451 0
c gate 452 126 451 0
126 -452 0
451 -452 0
-126 -451 452 0
c gate 453 -70 127 0
-70 -453 0
127 -453 0
70 -127 453 0
c gate 454 -72 -127 0
-72 -454 0
-127 -454 0
72 127 454 0
c gate 455 -126 -454 0
-126 -455 0
-454 -455 0
126 454 455 0
c gate 456 -453 455 0
-453 -456 0
455 -456 0
453 -455 456 0
c gate 457 129 -456 0
129 -457 0
-456 -457 0
-129 456 457 0
c gate 458 -452 457 0
-452 -458 0
457 -458 0
452 -457 458 0
c gate 459 -448 -458 0
-448 -459 0
-458 -459 0
448 458 459 0
c gate 460 -128 -459 0
-128 -460 0
-459 -460 0
128 459 460 0
c gate 461 -131 -460 0
-131 -461 0
-460 -461 0
131 460 461 0
c gate 462 -438 461 0
-438 -462 0
461 -462 0
438 -461 462 0
c gate 463 -416 -462 0
-416 -463 0
-462 -463 0
416 462 463 0
c gate 464 130 -463 0
130 -464 0
-463 -464 0
-130 463 464 0
c gate 465 -132 464 0
-132 -465 0
464 -465 0
132 -464 465 0
c gate 466 -88 -127 0
-88 -466 0
-127 -466 0
88 127 466 0
c gate 467 -86 127 0
-86 -467 0
127 -467 0
86 -127 467 0
c gate 468 -466 -467 0
-466 -468 0
-467 -468 0
466 467 468 0
c gate 469 126 468 0
126 -469 0
468 -469 0
-126 -468 469 0
c gate 470 -89 -127 0
-89 -470 0
-127 -470 0
89 127 470 0
c gate 471 -87 127 0
-87 -471 0
127 -471 0
87 -127 471 0
c gate 472 -126 -471 0
-126 -472 0
-471 -472 0
126 471 472 0
c gate 473 -470 472 0
-470 -473 0
472 -473 0
470 -472 473 0
c gate 474 129 -473 0
129 -474 0
-473 -474 0
-129 473 474 0
c gate 475 -469 474 0
-469 -475 0
474 -475 0
469 -474 475 0
c gate 476 -96 -127 0
-96 -476 0
-127 -476 0
96 127 476 0
c gate 477 -94 127 0
-94 -477 0
127 -477 0
94 -127 477 0
c gate 478 -476 -477 0
-476 -478 0
-477 -478 0
476 477 478 0
c gate 479 126 478 0
126 -479 0
478 -479 0
-126 -478 479 0
c gate 480 -95 127 0
-95 -480 0
127 -480 0
95 -127 480 0
c gate 481 -97 -127 0
-97 -481 0
-127 -481 0
97 127 481 0
c gate 482 -480 -481 0
-480 -482 0
-481 -482 0
480 481 482 0
c gate 483 -126 482 0
-126 -483 0
482 -483 0
126 -482 483 0
c gate 484 -129 -483 0
-129 -484 0
-483 -484 0
129 483 484 0
c gate 485 -479 484 0
-479 -485 0
484 -485 0
479 -484 485 0
c gate 486 -475 -485 0
-475 -486 0
-485 -486 0
475 485 486 0
c gate 487 128 -486 0
128 -487 0
-486 -487 0
-128 486 487 0
c gate 488 -98 127 0
-98 -488 0
127 -488 0
98 -127 488 0
c gate 489 -100 -127 0
-100 -489 0
-127 -489 0
100 127 489 0
c gate 490 126 -489 0
126 -490 0
-489 -490 0
-126 489 490 0
c gate 491 -488 490 0
-488 -491 0
490 -491 0
488 -490 491 0
c gate 492 -99 127 0
-99 -492 0
127 -492 0
99 -127 492 0
c gate 493 -101 -127 0
-101 -493 0
-127 -493 0
101 127 493 0
c gate 494 -492 -493 0
-492 -494 0
-493 -494 0
492 493 494 0
c gate 495 -126 494 0
-126 -495 0
494 -495 0
126 -494 495 0
c gate 496 -129 -495 0
-129 -496 0
-495 -496 0
129 495 496 0
c gate 497 -491 496 0
-491 -497 0
496 -497 0
491 -496 497 0
c gate 498 -92 -127 0
-92 -498 0
-127 -498 0
92 127 498 0
c gate 499 -90 127 0
-90 -499 0
127 -499 0
90 -127 499 0
c gate 500 -498 -499 0
-498 -500 0
-499 -500 0
498 499 500 0
c gate 501 126 500 0
126 -501 0
500 -501 0
-126 -500 501 0
c gate 502 -93 -127 0
-93 -502 0
-127 -502 0
93 127 502 0
c gate 503 -91 127 0
-91 -503 0
127 -503 0
91 -127 503 0
c gate 504 -126 -503 0
-126 -504 0
-503 -504 0
126 503 504 0
c gate 505 -502 504 0
-502 -505 0
504 -505 0
502 -504 505 0
c gate 506 129 -505 0
129 -506 0
-505 -506 0
-129 505 506 0
c gate 507 -501 506 0
-501 -507 0
506 -507 0
501 -506 507 0
c gate 508 -497 -507 0
-497 -508 0
-507 -508 0
497 507 508 0
c gate 509 -128 -508 0
-128 -509 0
-508 -509 0
128 508 509 0
c gate 510 131 -509 0
131 -510 0
-509 -510 0
-131 509 510 0
c gate 511 -487 510 0
-487 -511 0
510 -511 0
487 -510 511 0
c gate 512 -131 384 0
-131 -512 0
384 -512 0
131 -384 512 0
c gate 513 130 -512 0
130 -513 0
-512 -513 0
-130 512 513 0
c gate 514 -511 513 0
-511 -514 0
513 -514 0
511 -513 514 0
c gate 515 132 514 0
132 -515 0
514 -515 0
-132 -514 515 0
c gate 516 -87 -127 0
-87 -516 0
-127 -516 0
87 127 516 0
c gate 517 -85 127 0
-85 -517 0
127 -517 0
85 -127 517 0
c gate 518 126 -517 0
126 -518 0
-517 -518 0
-126 517 518 0
c gate 519 -516 518 0
-516 -519 0
518 -519 0
516 -518 519 0
c gate 520 -126 468 0
-126 -520 0
468 -520 0
126 -468 520 0
c gate 521 129 -520 0
129 -521 0
-520 -521 0
-129 520 521 0
c gate 522 -519 521 0
-519 -522 0
521 -522 0
519 -521 522 0
c gate 523 -95 -127 0
-95 -523 0
-127 -523 0
95 127 523 0
c gate 524 -93 127 0
-93 -524 0
127 -524 0
93 -127 524 0
c gate 525 126 -524 0
126 -525 0
-524 -525 0
-126 524 525 0
c gate 526 -523 525 0
-523 -526 0
525 -526 0
523 -525 526 0
c gate 527 -126 478 0
-126 -527 0
478 -527 0
126 -478 527 0
c gate 528 -129 -527 0
-129 -528 0
-527 -528 0
129 527 528 0
c gate 529 -526 528 0
-526 -529 0
528 -529 0
526 -528 529 0
c gate 530 -128 -529 0
-128 -530 0
-529 -530 0
128 529 530 0
c gate 531 -522 530 0
-522 -531 0
530 -531 0
522 -530 531 0
c gate 532 -91 -127 0
-91 -532 0
-127 -532 0
91 127 532 0
c gate 533 -89 127 0
-89 -533 0
127 -533 0
89 -127 533 0
c gate 534 126 -533 0
126 -534 0
-533 -534 0
-126 533 534 0
c gate 535 -532 534 0
-532 -535 0
534 -535 0
532 -534 535 0
c gate 536 -126 500 0
-126 -536 0
500 -536 0
126 -500 536 0
c gate 537 -129 -536 0
-129 -537 0
-536 -537 0
129 536 537 0
c gate 538 -535 537 0
-535 -538 0
537 -538 0
535 -537 538 0
c gate 539 -82 127 0
-82 -539 0
127 -539 0
82 -127 539 0
c gate 540 -84 -127 0
-84 -540 0
-127 -540 0
84 127 540 0
c gate 541 -126 -540 0
-126 -541 0
-540 -541 0
126 540 541 0
c gate 542 -539 541 0
-539 -542 0
541 -542 0
539 -541 542 0
c gate 543 -81 127 0
-81 -543 0
127 -543 0
81 -127 543 0
c gate 544 -83 -127 0
-83 -544 0
-127 -544 0
83 127 544 0
c gate 545 126 -544 0
126 -545 0
-544 -545 0
-126 544 545 0
c gate 546 -543 545 0
-543 -546 0
545 -546 0
543 -545 546 0
c gate 547 129 -546 0
129 -547 0
-546 -547 0
-129 546 547 0
c gate 548 -542 547 0
-542 -548 0
547 -548 0
542 -547 548 0
c gate 549 128 -548 0
128 -549 0
-548 -549 0
-128 548 549 0
c gate 550 -538 549 0
-538 -550 0
549 -550 0
538 -549 550 0
c gate 551 -531 -550 0
-531 -551 0
-550 -551 0
531 550 551 0
c gate 552 131 -551 0
131 -552 0
-551 -552 0
-131 551 552 0
c gate 553 -114 127 0
-114 -553 0
127 -553 0
114 -127 553 0
c gate 554 -116 -127 0
-116 -554 0
-127 -554 0
116 127 554 0
c gate 555 -126 -554 0
-126 -555 0
-554 -555 0
126 554 555 0
c gate 556 -553 555 0
-553 -556 0
555 -556 0
553 -555 556 0
c gate 557 115 -127 0
115 -557 0
-127 -557 0
-115 127 557 0
c gate 558 113 127 0
113 -558 0
127 -558 0
-113 -127 558 0
c gate 559 -557 -558 0
-557 -559 0
-558 -559 0
557 558 559 0
c gate 560 126 -559 0
126 -560 0
-559 -560 0
-126 559 560 0
c gate 561 129 -560 0
129 -561 0
-560 -561 0
-129 560 561 0
c gate 562 -556 561 0
-556 -562 0
561 -562 0
556 -561 562 0
c gate 563 -123 -127 0
-123 -563 0
-127 -563 0
123 127 563 0
c gate 564 -121 127 0
-121 -564 0
127 -564 0
121 -127 564 0
c gate 565 126 -564 0
126 -565 0
-564 -565 0
-126 564 565 0
c gate 566 -563 565 0
-563 -566 0
565 -566 0
563 -565 566 0
c gate 567 -126 378 0
-126 -567 0
378 -567 0
126 -378 567 0
c gate 568 -129 -567 0
-129 -568 0
-567 -568 0
129 567 568 0
c gate 569 -566 568 0
-566 -569 0
568 -569 0
566 -568 569 0
c gate 570 -562 -569 0
-562 -570 0
-569 -570 0
562 569 570 0
c gate 571 128 -570 0
128 -571 0
-570 -571 0
-128 570 571 0
c gate 572 119 -127 0
119 -572 0
-127 -572 0
-119 127 572 0
c gate 573 117 127 0
117 -573 0
127 -573 0
-117 -127 573 0
c gate 574 -572 -573 0
-572 -574 0
-573 -574 0
572 573 574 0
c gate 575 126 -574 0
126 -575 0
-574 -575 0
-126 574 575 0
c gate 576 -126 352 0
-126 -576 0
352 -576 0
126 -352 576 0
c gate 577 129 -576 0
129 -577 0
-576 -577 0
-129 576 577 0
c gate 578 -575 577 0
-575 -578 0
577 -578 0
575 -577 578 0
c gate 579 -2 -127 0
-2 -579 0
-127 -579 0
2 127 579 0
c gate 580 -125 127 0
-125 -580 0
127 -580 0
125 -127 580 0
c gate 581 126 -580 0
126 -581 0
-580 -581 0
-126 580 581 0
c gate 582 -579 581 0
-579 -582 0
581 -582 0
579 -581 582 0
c gate 583 -126 342 0
-126 -583 0
342 -583 0
126 -342 583 0
c gate 584 -129 -583 0
-129 -584 0
-583 -584 0
129 583 584 0
c gate 585 -582 584 0
-582 -585 0
584 -585 0
582 -584 585 0
c gate 586 -578 -585 0
-578 -586 0
-585 -586 0
578 585 586 0
c gate 587 -128 -586 0
-128 -587 0
-586 -587 0
128 586 587 0
c gate 588 -131 -587 0
-131 -588 0
-587 -588 0
131 587 588 0
c gate 589 -571 588 0
-571 -589 0
588 -589 0
571 -588 589 0
c gate 590 130 -589 0
130 -590 0
-589 -590 0
-130 589 590 0
c gate 591 -552 590 0
-552 -591 0
590 -591 0
552 -590 591 0
c gate 592 132 591 0
132 -592 0
591 -592 0
-132 -591 592 0
c gate 593 -132 226 0
-132 -593 0
226 -593 0
132 -226 593 0
c gate 594 132 464 0
132 -594 0
464 -594 0
-132 -464 594 0
c gate 595 323 -594 0
323 -595 0
-594 -595 0
-323 594 595 0
c gate 596 105 127 0
105 -596 0
127 -596 0
-105 -127 596 0
c gate 597 107 -127 0
107 -597 0
-127 -597 0
-107 127 597 0
c gate 598 -126 -597 0
-126 -598 0
-597 -598 0
126 597 598 0
c gate 599 -596 598 0
-596 -599 0
598 -599 0
596 -598 599 0
c gate 600 -106 -127 0
-106 -600 0
-127 -600 0
106 127 600 0
c gate 601 -104 127 0
-104 -601 0
127 -601 0
104 -127 601 0
c gate 602 -600 -601 0
-600 -602 0
-601 -602 0
600 601 602 0
c gate 603 126 -602 0
126 -603 0
-602 -603 0
-126 602 603 0
c gate 604 129 -603 0
129 -604 0
-603 -604 0
-129 603 604 0
c gate 605 -599 604 0
-599 -605 0
604 -605 0
599 -604 605 0
c gate 606 114 -127 0
114 -606 0
-127 -606 0
-114 127 606 0
c gate 607 112 127 0
112 -607 0
127 -607 0
-112 -127 607 0
c gate 608 126 -607 0
126 -608 0
-607 -608 0
-126 607 608 0
c gate 609 -606 608 0
-606 -609 0
608 -609 0
606 -608 609 0
c gate 610 -126 559 0
-126 -610 0
559 -610 0
126 -559 610 0
c gate 611 -129 -610 0
-129 -611 0
-610 -611 0
129 610 611 0
c gate 612 -609 611 0
-609 -612 0
611 -612 0
609 -611 612 0
c gate 613 -605 -612 0
-605 -613 0
-612 -613 0
605 612 613 0
c gate 614 128 -613 0
128 -614 0
-613 -614 0
-128 613 614 0
c gate 615 109 127 0
109 -615 0
127 -615 0
-109 -127 615 0
c gate 616 111 -127 0
111 -616 0
-127 -616 0
-111 127 616 0
c gate 617 -126 -616 0
-126 -617 0
-616 -617 0
126 616 617 0
c gate 618 -615 617 0
-615 -618 0
617 -618 0
615 -617 618 0
c gate 619 -110 -127 0
-110 -619 0
-127 -619 0
110 127 619 0
c gate 620 -108 127 0
-108 -620 0
127 -620 0
108 -127 620 0
c gate 621 -619 -620 0
-619 -621 0
-620 -621 0
619 620 621 0
c gate 622 126 -621 0
126 -622 0
-621 -622 0
-126 621 622 0
c gate 623 129 -622 0
129 -623 0
-622 -623 0
-129 622 623 0
c gate 624 -618 623 0
-618 -624 0
623 -624 0
618 -623 624 0
c gate 625 118 -127 0
118 -625 0
-127 -625 0
-118 127 625 0
c gate 626 116 127 0
116 -626 0
127 -626 0
-116 -127 626 0
c gate 627 126 -626 0
126 -627 0
-626 -627 0
-126 626 627 0
c gate 628 -625 627 0
-625 -628 0
627 -628 0
625 -627 628 0
c gate 629 -126 574 0
-126 -629 0
574 -629 0
126 -574 629 0
c gate 630 -129 -629 0
-129 -630 0
-629 -630 0
129 629 630 0
c gate 631 -628 630 0
-628 -631 0
630 -631 0
628 -630 631 0
c gate 632 -624 -631 0
-624 -632 0
-631 -632 0
624 631 632 0
c gate 633 -128 -632 0
-128 -633 0
-632 -633 0
128 632 633 0
c gate 634 131 -633 0
131 -634 0
-633 -634 0
-131 633 634 0
c gate 635 -614 634 0
-614 -635 0
634 -635 0
614 -634 635 0
c gate 636 -131 177 0
-131 -636 0
177 -636 0
131 -177 636 0
c gate 637 130 -636 0
130 -637 0
-636 -637 0
-130 636 637 0
c gate 638 -635 637 0
-635 -638 0
637 -638 0
635 -637 638 0
c gate 639 -132 638 0
-132 -639 0
638 -639 0
132 -638 639 0
c gate 640 595 -639 0
595 -640 0
-639 -640 0
-595 639 640 0
c gate 641 -103 127 0
-103 -641 0
127 -641 0
103 -127 641 0
c gate 642 -105 -127 0
-105 -642 0
-127 -642 0
105 127 642 0
c gate 643 126 -642 0
126 -643 0
-642 -643 0
-126 642 643 0
c gate 644 -641 643 0
-641 -644 0
643 -644 0
641 -643 644 0
c gate 645 -126 602 0
-126 -645 0
602 -645 0
126 -602 645 0
c gate 646 -129 -645 0
-129 -646 0
-645 -646 0
129 645 646 0
c gate 647 -644 646 0
-644 -647 0
646 -647 0
644 -646 647 0
c gate 648 126 482 0
126 -648 0
482 -648 0
-126 -482 648 0
c gate 649 -98 -127 0
-98 -649 0
-127 -649 0
98 127 649 0
c gate 650 -96 127 0
-96 -650 0
127 -650 0
96 -127 650 0
c gate 651 -126 -650 0
-126 -651 0
-650 -651 0
126 650 651 0
c gate 652 -649 651 0
-649 -652 0
651 -652 0
649 -651 652 0
c gate 653 129 -652 0
129 -653 0
-652 -653 0
-129 652 653 0
c gate 654 -648 653 0
-648 -654 0
653 -654 0
648 -653 654 0
c gate 655 -647 -654 0
-647 -655 0
-654 -655 0
647 654 655 0
c gate 656 128 -655 0
128 -656 0
-655 -656 0
-128 655 656 0
c gate 657 126 494 0
126 -657 0
494 -657 0
-126 -494 657 0
c gate 658 -102 -127 0
-102 -658 0
-127 -658 0
102 127 658 0
c gate 659 -100 127 0
-100 -659 0
127 -659 0
100 -127 659 0
c gate 660 -126 -659 0
-126 -660 0
-659 -660 0
126 659 660 0
c gate 661 -658 660 0
-658 -661 0
660 -661 0
658 -660 661 0
c gate 662 129 -661 0
129 -662 0
-661 -662 0
-129 661 662 0
c gate 663 -657 662 0
-657 -663 0
662 -663 0
657 -662 663 0
c gate 664 -107 127 0
-107 -664 0
127 -664 0
107 -127 664 0
c gate 665 -109 -127 0
-109 -665 0
-127 -665 0
109 127 665 0
c gate 666 126 -665 0
126 -666 0
-665 -666 0
-126 665 666 0
c gate 667 -664 666 0
-664 -667 0
666 -667 0
664 -666 667 0
c gate 668 -126 621 0
-126 -668 0
621 -668 0
126 -621 668 0
c gate 669 -129 -668 0
-129 -669 0
-668 -669 0
129 668 669 0
c gate 670 -667 669 0
-667 -670 0
669 -670 0
667 -669 670 0
c gate 671 -663 -670 0
-663 -671 0
-670 -671 0
663 670 671 0
c gate 672 -128 -671 0
-128 -672 0
-671 -672 0
128 671 672 0
c gate 673 -131 -672 0
-131 -673 0
-672 -673 0
131 672 673 0
c gate 674 -656 673 0
-656 -674 0
673 -674 0
656 -673 674 0
c gate 675 -74 -127 0
-74 -675 0
-127 -675 0
74 127 675 0
c gate 676 -72 127 0
-72 -676 0
127 -676 0
72 -127 676 0
c gate 677 126 -676 0
126 -677 0
-676 -677 0
-126 676 677 0
c gate 678 -675 677 0
-675 -678 0
677 -678 0
675 -677 678 0
c gate 679 -126 429 0
-126 -679 0
429 -679 0
126 -429 679 0
c gate 680 -129 -679 0
-129 -680 0
-679 -680 0
129 679 680 0
c gate 681 -678 680 0
-678 -681 0
680 -681 0
678 -680 681 0
c gate 682 126 244 0
126 -682 0
244 -682 0
-126 -244 682 0
c gate 683 -126 419 0
-126 -683 0
419 -683 0
126 -419 683 0
c gate 684 129 -683 0
129 -684 0
-683 -684 0
-129 683 684 0
c gate 685 -682 684 0
-682 -685 0
684 -685 0
682 -684 685 0
c gate 686 -681 -685 0
-681 -686 0
-685 -686 0
681 685 686 0
c gate 687 128 -686 0
128 -687 0
-686 -687 0
-128 686 687 0
c gate 688 -70 -127 0
-70 -688 0
-127 -688 0
70 127 688 0
c gate 689 -68 127 0
-68 -689 0
127 -689 0
68 -127 689 0
c gate 690 126 -689 0
126 -690 0
-689 -690 0
-126 689 690 0
c gate 691 -688 690 0
-688 -691 0
690 -691 0
688 -690 691 0
c gate 692 -126 451 0
-126 -692 0
451 -692 0
126 -451 692 0
c gate 693 129 -692 0
129 -693 0
-692 -693 0
-129 692 693 0
c gate 694 -691 693 0
-691 -694 0
693 -694 0
691 -693 694 0
c gate 695 -78 -127 0
-78 -695 0
-127 -695 0
78 127 695 0
c gate 696 -76 127 0
-76 -696 0
127 -696 0
76 -127 696 0
c gate 697 126 -696 0
126 -697 0
-696 -697 0
-126 696 697 0
c gate 698 -695 697 0
-695 -698 0
697 -698 0
695 -697 698 0
c gate 699 -126 441 0
-126 -699 0
441 -699 0
126 -441 699 0
c gate 700 -129 -699 0
-129 -700 0
-699 -700 0
129 699 700 0
c gate 701 -698 700 0
-698 -701 0
700 -701 0
698 -700 701 0
c gate 702 -694 -701 0
-694 -702 0
-701 -702 0
694 701 702 0
c gate 703 -128 -702 0
-128 -703 0
-702 -703 0
128 702 703 0
c gate 704 131 -703 0
131 -704 0
-703 -704 0
-131 703 704 0
c gate 705 -687 704 0
-687 -705 0
704 -705 0
687 -704 705 0
c gate 706 130 -705 0
130 -706 0
-705 -706 0
-130 705 706 0
c gate 707 -674 706 0
-674 -707 0
706 -707 0
674 -706 707 0
c gate 708 132 707 0
132 -708 0
707 -708 0
-132 -707 708 0
c gate 709 -132 387 0
-132 -709 0
387 -709 0
132 -387 709 0
c gate 710 -708 -709 0
-708 -710 0
-709 -710 0
708 709 710 0
c gate 711 -640 710 0
-640 -711 0
710 -711 0
640 -710 711 0
c gate 712 -593 -711 0
-593 -712 0
-711 -712 0
593 711 712 0
c gate 713 -592 -712 0
-592 -713 0
-712 -713 0
592 712 713 0
c gate 714 -132 321 0
-132 -714 0
321 -714 0
132 -321 714 0
c gate 715 -713 -714 0
-713 -715 0
-714 -715 0
713 714 715 0
c gate 716 -515 -715 0
-515 -716 0
-715 -716 0
515 715 716 0
c gate 717 -465 -716 0
-465 -717 0
-716 -717 0
465 716 717 0
c gate 718 132 638 0
132 -718 0
638 -718 0
-132 -638 718 0
c gate 719 717 -718 0
717 -719 0
-718 -719 0
-717 718 719 0
c gate 720 -388 -719 0
-388 -720 0
-719 -720 0
388 719 720 0
c gate 721 -323 -720 0
-323 -721 0
-720 -721 0
323 720 721 0
c gate 722 -132 707 0
-132 -722 0
707 -722 0
132 -707 722 0
c gate 723 -132 591 0
-132 -723 0
591 -723 0
132 -591 723 0
c gate 724 -722 -723 0
-722 -724 0
-723 -724 0
722 723 724 0
c gate 725 -132 514 0
-132 -725 0
514 -725 0
132 -514 725 0
c gate 726 724 -725 0
724 -726 0
-725 -726 0
-724 725 726 0
c gate 727 720 -726 0
720 -727 0
-726 -727 0
-720 726 727 0
c gate 728 -721 -727 0
-721 -728 0
-727 -728 0
721 727 728 0
c PO
-728 0
